//First Small Instance: 
Params = <15,7,13,8,2>;
Workers = { 
<1,3>,
<2,4>,
<3,6>,
<4,3>,
<5,2>,
<6,3>,
<7,4>,
<8,3>
};
Ops = { 
<1,1,1>,
<2,1,2>,
<3,1,3>,
<4,1,4>,
<5,1,5>,
<6,1,6>,
<7,1,7>,
<8,1,8>,
<20,1,9>,
<22,2,1>,
<23,2,2>,
<24,2,3>,
<25,2,4>,
<26,2,5>,
<27,2,6>,
<28,2,7>,
<29,2,8>,
<31,2,9>,
<32,2,10>,
<34,2,11>,
<35,2,12>,
<38,2,13>,
<39,2,14>,
<41,2,15>,
<43,3,1>,
<44,3,2>,
<45,3,3>,
<46,3,4>,
<47,3,5>,
<48,3,6>,
<49,3,7>,
<50,3,8>,
<51,3,9>,
<55,3,10>,
<56,3,11>,
<61,3,12>,
<64,4,1>,
<65,4,2>,
<66,4,3>,
<67,4,4>,
<68,4,5>,
<69,4,6>,
<70,4,7>,
<71,4,8>,
<73,4,9>,
<76,4,10>,
<78,4,11>,
<79,4,12>,
<81,4,13>,
<83,4,14>,
<84,4,15>,
<85,5,1>,
<86,5,2>,
<87,5,3>,
<88,5,4>,
<89,5,5>,
<90,5,6>,
<91,5,7>,
<92,5,8>,
<94,5,9>,
<95,5,10>,
<96,5,11>,
<97,5,12>,
<98,5,13>,
<102,5,14>,
<106,6,1>,
<107,6,2>,
<108,6,3>,
<109,6,4>,
<110,6,5>,
<111,6,6>,
<112,6,7>,
<113,6,8>,
<114,6,9>,
<118,6,10>,
<119,6,11>,
<121,6,12>,
<123,6,13>,
<126,6,14>,
<127,7,1>,
<128,7,2>,
<129,7,3>,
<130,7,4>,
<131,7,5>,
<132,7,6>,
<133,7,7>,
<134,7,8>,
<136,7,9>,
<137,7,10>,
<138,7,11>,
<139,7,12>,
<142,7,13>,
<146,7,14>,
<147,7,15>,
<148,8,1>,
<149,8,2>,
<150,8,3>,
<151,8,4>,
<152,8,5>,
<153,8,6>,
<154,8,7>,
<155,8,8>,
<156,8,9>,
<157,8,10>,
<158,8,11>,
<159,8,12>,
<160,8,13>,
<162,8,14>,
<165,8,15>,
<166,8,16>,
<168,8,17>,
<169,9,1>,
<170,9,2>,
<171,9,3>,
<172,9,4>,
<173,9,5>,
<174,9,6>,
<175,9,7>,
<176,9,8>,
<177,9,9>,
<178,9,10>,
<182,9,11>,
<185,9,12>,
<186,9,13>,
<189,9,14>,
<190,10,1>,
<191,10,2>,
<192,10,3>,
<193,10,4>,
<194,10,5>,
<195,10,6>,
<196,10,7>,
<197,10,8>,
<200,10,9>,
<205,10,10>,
<207,10,11>,
<209,10,12>,
<211,11,1>,
<212,11,2>,
<213,11,3>,
<214,11,4>,
<215,11,5>,
<216,11,6>,
<217,11,7>,
<218,11,8>,
<221,11,9>,
<222,11,10>,
<223,11,11>,
<225,11,12>,
<227,11,13>,
<228,11,14>,
<229,11,15>,
<232,12,1>,
<233,12,2>,
<234,12,3>,
<235,12,4>,
<236,12,5>,
<237,12,6>,
<238,12,7>,
<239,12,8>,
<241,12,9>,
<242,12,10>,
<243,12,11>,
<244,12,12>,
<245,12,13>,
<246,12,14>,
<248,12,15>,
<249,12,16>,
<252,12,17>,
<253,13,1>,
<254,13,2>,
<255,13,3>,
<256,13,4>,
<257,13,5>,
<258,13,6>,
<259,13,7>,
<260,13,8>,
<261,13,9>,
<264,13,10>,
<266,13,11>,
<267,13,12>,
<268,13,13>,
<270,13,14>,
<271,13,15>,
<274,14,1>,
<275,14,2>,
<276,14,3>,
<277,14,4>,
<278,14,5>,
<279,14,6>,
<280,14,7>,
<281,14,8>,
<282,14,9>,
<284,14,10>,
<286,14,11>,
<290,14,12>,
<293,14,13>,
<295,15,1>,
<296,15,2>,
<297,15,3>,
<298,15,4>,
<299,15,5>,
<300,15,6>,
<301,15,7>,
<302,15,8>,
<303,15,9>,
<305,15,10>,
<306,15,11>,
<307,15,12>,
<308,15,13>,
<310,15,14>,
<312,15,15>,
<314,15,16>
 };
Modes = { 
<1,1,4,1>,
<1,1,4,5>,
<1,1,4,8>,
<1,2,4,1>,
<1,2,4,5>,
<1,2,4,8>,
<2,3,3,2>,
<2,3,3,3>,
<2,3,3,7>,
<2,4,3,2>,
<2,4,3,3>,
<2,4,3,7>,
<3,5,10,2>,
<3,5,10,3>,
<3,5,10,5>,
<3,5,10,6>,
<3,5,10,7>,
<3,5,10,8>,
<3,6,10,2>,
<3,6,10,3>,
<3,6,10,5>,
<3,6,10,6>,
<3,6,10,7>,
<3,6,10,8>,
<4,7,2,1>,
<4,7,2,3>,
<4,7,2,4>,
<4,7,2,7>,
<5,8,7,2>,
<5,8,7,3>,
<5,8,7,5>,
<5,8,7,7>,
<5,8,7,8>,
<5,9,7,2>,
<5,9,7,3>,
<5,9,7,5>,
<5,9,7,7>,
<5,9,7,8>,
<6,10,2,1>,
<6,10,2,2>,
<6,10,2,3>,
<6,10,2,4>,
<6,10,2,6>,
<6,11,2,1>,
<6,11,2,2>,
<6,11,2,3>,
<6,11,2,4>,
<6,11,2,6>,
<7,12,8,1>,
<7,12,8,3>,
<7,12,8,4>,
<7,12,8,6>,
<7,12,8,8>,
<7,13,8,1>,
<7,13,8,3>,
<7,13,8,4>,
<7,13,8,6>,
<7,13,8,8>,
<8,1,1,1>,
<8,1,1,5>,
<8,1,1,8>,
<8,2,1,1>,
<8,2,1,5>,
<8,2,1,8>,
<20,10,7,1>,
<20,10,7,2>,
<20,10,7,3>,
<20,10,7,4>,
<20,10,7,6>,
<20,11,7,1>,
<20,11,7,2>,
<20,11,7,3>,
<20,11,7,4>,
<20,11,7,6>,
<22,1,10,1>,
<22,1,10,5>,
<22,1,10,8>,
<22,2,10,1>,
<22,2,10,5>,
<22,2,10,8>,
<23,3,10,2>,
<23,3,10,3>,
<23,3,10,7>,
<23,4,10,2>,
<23,4,10,3>,
<23,4,10,7>,
<24,5,8,2>,
<24,5,8,3>,
<24,5,8,5>,
<24,5,8,6>,
<24,5,8,7>,
<24,5,8,8>,
<24,6,8,2>,
<24,6,8,3>,
<24,6,8,5>,
<24,6,8,6>,
<24,6,8,7>,
<24,6,8,8>,
<25,7,4,1>,
<25,7,4,3>,
<25,7,4,4>,
<25,7,4,7>,
<26,8,10,2>,
<26,8,10,3>,
<26,8,10,5>,
<26,8,10,7>,
<26,8,10,8>,
<26,9,10,2>,
<26,9,10,3>,
<26,9,10,5>,
<26,9,10,7>,
<26,9,10,8>,
<27,10,10,1>,
<27,10,10,2>,
<27,10,10,3>,
<27,10,10,4>,
<27,10,10,6>,
<27,11,10,1>,
<27,11,10,2>,
<27,11,10,3>,
<27,11,10,4>,
<27,11,10,6>,
<28,12,8,1>,
<28,12,8,3>,
<28,12,8,4>,
<28,12,8,6>,
<28,12,8,8>,
<28,13,8,1>,
<28,13,8,3>,
<28,13,8,4>,
<28,13,8,6>,
<28,13,8,8>,
<29,1,5,1>,
<29,1,5,5>,
<29,1,5,8>,
<29,2,5,1>,
<29,2,5,5>,
<29,2,5,8>,
<31,5,6,2>,
<31,5,6,3>,
<31,5,6,5>,
<31,5,6,6>,
<31,5,6,7>,
<31,5,6,8>,
<31,6,6,2>,
<31,6,6,3>,
<31,6,6,5>,
<31,6,6,6>,
<31,6,6,7>,
<31,6,6,8>,
<32,7,2,1>,
<32,7,2,3>,
<32,7,2,4>,
<32,7,2,7>,
<34,10,5,1>,
<34,10,5,2>,
<34,10,5,3>,
<34,10,5,4>,
<34,10,5,6>,
<34,11,5,1>,
<34,11,5,2>,
<34,11,5,3>,
<34,11,5,4>,
<34,11,5,6>,
<35,12,2,1>,
<35,12,2,3>,
<35,12,2,4>,
<35,12,2,6>,
<35,12,2,8>,
<35,13,2,1>,
<35,13,2,3>,
<35,13,2,4>,
<35,13,2,6>,
<35,13,2,8>,
<38,5,10,2>,
<38,5,10,3>,
<38,5,10,5>,
<38,5,10,6>,
<38,5,10,7>,
<38,5,10,8>,
<38,6,10,2>,
<38,6,10,3>,
<38,6,10,5>,
<38,6,10,6>,
<38,6,10,7>,
<38,6,10,8>,
<39,7,3,1>,
<39,7,3,3>,
<39,7,3,4>,
<39,7,3,7>,
<41,10,10,1>,
<41,10,10,2>,
<41,10,10,3>,
<41,10,10,4>,
<41,10,10,6>,
<41,11,10,1>,
<41,11,10,2>,
<41,11,10,3>,
<41,11,10,4>,
<41,11,10,6>,
<43,1,5,1>,
<43,1,5,5>,
<43,1,5,8>,
<43,2,5,1>,
<43,2,5,5>,
<43,2,5,8>,
<44,3,9,2>,
<44,3,9,3>,
<44,3,9,7>,
<44,4,9,2>,
<44,4,9,3>,
<44,4,9,7>,
<45,5,8,2>,
<45,5,8,3>,
<45,5,8,5>,
<45,5,8,6>,
<45,5,8,7>,
<45,5,8,8>,
<45,6,8,2>,
<45,6,8,3>,
<45,6,8,5>,
<45,6,8,6>,
<45,6,8,7>,
<45,6,8,8>,
<46,7,2,1>,
<46,7,2,3>,
<46,7,2,4>,
<46,7,2,7>,
<47,8,6,2>,
<47,8,6,3>,
<47,8,6,5>,
<47,8,6,7>,
<47,8,6,8>,
<47,9,6,2>,
<47,9,6,3>,
<47,9,6,5>,
<47,9,6,7>,
<47,9,6,8>,
<48,10,7,1>,
<48,10,7,2>,
<48,10,7,3>,
<48,10,7,4>,
<48,10,7,6>,
<48,11,7,1>,
<48,11,7,2>,
<48,11,7,3>,
<48,11,7,4>,
<48,11,7,6>,
<49,12,2,1>,
<49,12,2,3>,
<49,12,2,4>,
<49,12,2,6>,
<49,12,2,8>,
<49,13,2,1>,
<49,13,2,3>,
<49,13,2,4>,
<49,13,2,6>,
<49,13,2,8>,
<50,1,9,1>,
<50,1,9,5>,
<50,1,9,8>,
<50,2,9,1>,
<50,2,9,5>,
<50,2,9,8>,
<51,3,3,2>,
<51,3,3,3>,
<51,3,3,7>,
<51,4,3,2>,
<51,4,3,3>,
<51,4,3,7>,
<55,10,3,1>,
<55,10,3,2>,
<55,10,3,3>,
<55,10,3,4>,
<55,10,3,6>,
<55,11,3,1>,
<55,11,3,2>,
<55,11,3,3>,
<55,11,3,4>,
<55,11,3,6>,
<56,12,3,1>,
<56,12,3,3>,
<56,12,3,4>,
<56,12,3,6>,
<56,12,3,8>,
<56,13,3,1>,
<56,13,3,3>,
<56,13,3,4>,
<56,13,3,6>,
<56,13,3,8>,
<61,8,6,2>,
<61,8,6,3>,
<61,8,6,5>,
<61,8,6,7>,
<61,8,6,8>,
<61,9,6,2>,
<61,9,6,3>,
<61,9,6,5>,
<61,9,6,7>,
<61,9,6,8>,
<64,1,7,1>,
<64,1,7,5>,
<64,1,7,8>,
<64,2,7,1>,
<64,2,7,5>,
<64,2,7,8>,
<65,3,7,2>,
<65,3,7,3>,
<65,3,7,7>,
<65,4,7,2>,
<65,4,7,3>,
<65,4,7,7>,
<66,5,3,2>,
<66,5,3,3>,
<66,5,3,5>,
<66,5,3,6>,
<66,5,3,7>,
<66,5,3,8>,
<66,6,3,2>,
<66,6,3,3>,
<66,6,3,5>,
<66,6,3,6>,
<66,6,3,7>,
<66,6,3,8>,
<67,7,1,1>,
<67,7,1,3>,
<67,7,1,4>,
<67,7,1,7>,
<68,8,2,2>,
<68,8,2,3>,
<68,8,2,5>,
<68,8,2,7>,
<68,8,2,8>,
<68,9,2,2>,
<68,9,2,3>,
<68,9,2,5>,
<68,9,2,7>,
<68,9,2,8>,
<69,10,6,1>,
<69,10,6,2>,
<69,10,6,3>,
<69,10,6,4>,
<69,10,6,6>,
<69,11,6,1>,
<69,11,6,2>,
<69,11,6,3>,
<69,11,6,4>,
<69,11,6,6>,
<70,12,7,1>,
<70,12,7,3>,
<70,12,7,4>,
<70,12,7,6>,
<70,12,7,8>,
<70,13,7,1>,
<70,13,7,3>,
<70,13,7,4>,
<70,13,7,6>,
<70,13,7,8>,
<71,1,4,1>,
<71,1,4,5>,
<71,1,4,8>,
<71,2,4,1>,
<71,2,4,5>,
<71,2,4,8>,
<73,5,9,2>,
<73,5,9,3>,
<73,5,9,5>,
<73,5,9,6>,
<73,5,9,7>,
<73,5,9,8>,
<73,6,9,2>,
<73,6,9,3>,
<73,6,9,5>,
<73,6,9,6>,
<73,6,9,7>,
<73,6,9,8>,
<76,10,1,1>,
<76,10,1,2>,
<76,10,1,3>,
<76,10,1,4>,
<76,10,1,6>,
<76,11,1,1>,
<76,11,1,2>,
<76,11,1,3>,
<76,11,1,4>,
<76,11,1,6>,
<78,1,2,1>,
<78,1,2,5>,
<78,1,2,8>,
<78,2,2,1>,
<78,2,2,5>,
<78,2,2,8>,
<79,3,5,2>,
<79,3,5,3>,
<79,3,5,7>,
<79,4,5,2>,
<79,4,5,3>,
<79,4,5,7>,
<81,7,10,1>,
<81,7,10,3>,
<81,7,10,4>,
<81,7,10,7>,
<83,10,3,1>,
<83,10,3,2>,
<83,10,3,3>,
<83,10,3,4>,
<83,10,3,6>,
<83,11,3,1>,
<83,11,3,2>,
<83,11,3,3>,
<83,11,3,4>,
<83,11,3,6>,
<84,12,5,1>,
<84,12,5,3>,
<84,12,5,4>,
<84,12,5,6>,
<84,12,5,8>,
<84,13,5,1>,
<84,13,5,3>,
<84,13,5,4>,
<84,13,5,6>,
<84,13,5,8>,
<85,1,2,1>,
<85,1,2,5>,
<85,1,2,8>,
<85,2,2,1>,
<85,2,2,5>,
<85,2,2,8>,
<86,3,5,2>,
<86,3,5,3>,
<86,3,5,7>,
<86,4,5,2>,
<86,4,5,3>,
<86,4,5,7>,
<87,5,8,2>,
<87,5,8,3>,
<87,5,8,5>,
<87,5,8,6>,
<87,5,8,7>,
<87,5,8,8>,
<87,6,8,2>,
<87,6,8,3>,
<87,6,8,5>,
<87,6,8,6>,
<87,6,8,7>,
<87,6,8,8>,
<88,7,8,1>,
<88,7,8,3>,
<88,7,8,4>,
<88,7,8,7>,
<89,8,10,2>,
<89,8,10,3>,
<89,8,10,5>,
<89,8,10,7>,
<89,8,10,8>,
<89,9,10,2>,
<89,9,10,3>,
<89,9,10,5>,
<89,9,10,7>,
<89,9,10,8>,
<90,10,2,1>,
<90,10,2,2>,
<90,10,2,3>,
<90,10,2,4>,
<90,10,2,6>,
<90,11,2,1>,
<90,11,2,2>,
<90,11,2,3>,
<90,11,2,4>,
<90,11,2,6>,
<91,12,4,1>,
<91,12,4,3>,
<91,12,4,4>,
<91,12,4,6>,
<91,12,4,8>,
<91,13,4,1>,
<91,13,4,3>,
<91,13,4,4>,
<91,13,4,6>,
<91,13,4,8>,
<92,1,10,1>,
<92,1,10,5>,
<92,1,10,8>,
<92,2,10,1>,
<92,2,10,5>,
<92,2,10,8>,
<94,5,5,2>,
<94,5,5,3>,
<94,5,5,5>,
<94,5,5,6>,
<94,5,5,7>,
<94,5,5,8>,
<94,6,5,2>,
<94,6,5,3>,
<94,6,5,5>,
<94,6,5,6>,
<94,6,5,7>,
<94,6,5,8>,
<95,7,4,1>,
<95,7,4,3>,
<95,7,4,4>,
<95,7,4,7>,
<96,8,1,2>,
<96,8,1,3>,
<96,8,1,5>,
<96,8,1,7>,
<96,8,1,8>,
<96,9,1,2>,
<96,9,1,3>,
<96,9,1,5>,
<96,9,1,7>,
<96,9,1,8>,
<97,10,6,1>,
<97,10,6,2>,
<97,10,6,3>,
<97,10,6,4>,
<97,10,6,6>,
<97,11,6,1>,
<97,11,6,2>,
<97,11,6,3>,
<97,11,6,4>,
<97,11,6,6>,
<98,12,4,1>,
<98,12,4,3>,
<98,12,4,4>,
<98,12,4,6>,
<98,12,4,8>,
<98,13,4,1>,
<98,13,4,3>,
<98,13,4,4>,
<98,13,4,6>,
<98,13,4,8>,
<102,7,6,1>,
<102,7,6,3>,
<102,7,6,4>,
<102,7,6,7>,
<106,1,3,1>,
<106,1,3,5>,
<106,1,3,8>,
<106,2,3,1>,
<106,2,3,5>,
<106,2,3,8>,
<107,3,7,2>,
<107,3,7,3>,
<107,3,7,7>,
<107,4,7,2>,
<107,4,7,3>,
<107,4,7,7>,
<108,5,3,2>,
<108,5,3,3>,
<108,5,3,5>,
<108,5,3,6>,
<108,5,3,7>,
<108,5,3,8>,
<108,6,3,2>,
<108,6,3,3>,
<108,6,3,5>,
<108,6,3,6>,
<108,6,3,7>,
<108,6,3,8>,
<109,7,10,1>,
<109,7,10,3>,
<109,7,10,4>,
<109,7,10,7>,
<110,8,7,2>,
<110,8,7,3>,
<110,8,7,5>,
<110,8,7,7>,
<110,8,7,8>,
<110,9,7,2>,
<110,9,7,3>,
<110,9,7,5>,
<110,9,7,7>,
<110,9,7,8>,
<111,10,1,1>,
<111,10,1,2>,
<111,10,1,3>,
<111,10,1,4>,
<111,10,1,6>,
<111,11,1,1>,
<111,11,1,2>,
<111,11,1,3>,
<111,11,1,4>,
<111,11,1,6>,
<112,12,1,1>,
<112,12,1,3>,
<112,12,1,4>,
<112,12,1,6>,
<112,12,1,8>,
<112,13,1,1>,
<112,13,1,3>,
<112,13,1,4>,
<112,13,1,6>,
<112,13,1,8>,
<113,1,8,1>,
<113,1,8,5>,
<113,1,8,8>,
<113,2,8,1>,
<113,2,8,5>,
<113,2,8,8>,
<114,3,4,2>,
<114,3,4,3>,
<114,3,4,7>,
<114,4,4,2>,
<114,4,4,3>,
<114,4,4,7>,
<118,10,1,1>,
<118,10,1,2>,
<118,10,1,3>,
<118,10,1,4>,
<118,10,1,6>,
<118,11,1,1>,
<118,11,1,2>,
<118,11,1,3>,
<118,11,1,4>,
<118,11,1,6>,
<119,12,1,1>,
<119,12,1,3>,
<119,12,1,4>,
<119,12,1,6>,
<119,12,1,8>,
<119,13,1,1>,
<119,13,1,3>,
<119,13,1,4>,
<119,13,1,6>,
<119,13,1,8>,
<121,3,3,2>,
<121,3,3,3>,
<121,3,3,7>,
<121,4,3,2>,
<121,4,3,3>,
<121,4,3,7>,
<123,7,4,1>,
<123,7,4,3>,
<123,7,4,4>,
<123,7,4,7>,
<126,12,3,1>,
<126,12,3,3>,
<126,12,3,4>,
<126,12,3,6>,
<126,12,3,8>,
<126,13,3,1>,
<126,13,3,3>,
<126,13,3,4>,
<126,13,3,6>,
<126,13,3,8>,
<127,1,1,1>,
<127,1,1,5>,
<127,1,1,8>,
<127,2,1,1>,
<127,2,1,5>,
<127,2,1,8>,
<128,3,7,2>,
<128,3,7,3>,
<128,3,7,7>,
<128,4,7,2>,
<128,4,7,3>,
<128,4,7,7>,
<129,5,1,2>,
<129,5,1,3>,
<129,5,1,5>,
<129,5,1,6>,
<129,5,1,7>,
<129,5,1,8>,
<129,6,1,2>,
<129,6,1,3>,
<129,6,1,5>,
<129,6,1,6>,
<129,6,1,7>,
<129,6,1,8>,
<130,7,8,1>,
<130,7,8,3>,
<130,7,8,4>,
<130,7,8,7>,
<131,8,4,2>,
<131,8,4,3>,
<131,8,4,5>,
<131,8,4,7>,
<131,8,4,8>,
<131,9,4,2>,
<131,9,4,3>,
<131,9,4,5>,
<131,9,4,7>,
<131,9,4,8>,
<132,10,4,1>,
<132,10,4,2>,
<132,10,4,3>,
<132,10,4,4>,
<132,10,4,6>,
<132,11,4,1>,
<132,11,4,2>,
<132,11,4,3>,
<132,11,4,4>,
<132,11,4,6>,
<133,12,10,1>,
<133,12,10,3>,
<133,12,10,4>,
<133,12,10,6>,
<133,12,10,8>,
<133,13,10,1>,
<133,13,10,3>,
<133,13,10,4>,
<133,13,10,6>,
<133,13,10,8>,
<134,1,2,1>,
<134,1,2,5>,
<134,1,2,8>,
<134,2,2,1>,
<134,2,2,5>,
<134,2,2,8>,
<136,5,3,2>,
<136,5,3,3>,
<136,5,3,5>,
<136,5,3,6>,
<136,5,3,7>,
<136,5,3,8>,
<136,6,3,2>,
<136,6,3,3>,
<136,6,3,5>,
<136,6,3,6>,
<136,6,3,7>,
<136,6,3,8>,
<137,7,9,1>,
<137,7,9,3>,
<137,7,9,4>,
<137,7,9,7>,
<138,8,9,2>,
<138,8,9,3>,
<138,8,9,5>,
<138,8,9,7>,
<138,8,9,8>,
<138,9,9,2>,
<138,9,9,3>,
<138,9,9,5>,
<138,9,9,7>,
<138,9,9,8>,
<139,10,10,1>,
<139,10,10,2>,
<139,10,10,3>,
<139,10,10,4>,
<139,10,10,6>,
<139,11,10,1>,
<139,11,10,2>,
<139,11,10,3>,
<139,11,10,4>,
<139,11,10,6>,
<142,3,8,2>,
<142,3,8,3>,
<142,3,8,7>,
<142,4,8,2>,
<142,4,8,3>,
<142,4,8,7>,
<146,10,3,1>,
<146,10,3,2>,
<146,10,3,3>,
<146,10,3,4>,
<146,10,3,6>,
<146,11,3,1>,
<146,11,3,2>,
<146,11,3,3>,
<146,11,3,4>,
<146,11,3,6>,
<147,12,1,1>,
<147,12,1,3>,
<147,12,1,4>,
<147,12,1,6>,
<147,12,1,8>,
<147,13,1,1>,
<147,13,1,3>,
<147,13,1,4>,
<147,13,1,6>,
<147,13,1,8>,
<148,1,9,1>,
<148,1,9,5>,
<148,1,9,8>,
<148,2,9,1>,
<148,2,9,5>,
<148,2,9,8>,
<149,3,8,2>,
<149,3,8,3>,
<149,3,8,7>,
<149,4,8,2>,
<149,4,8,3>,
<149,4,8,7>,
<150,5,2,2>,
<150,5,2,3>,
<150,5,2,5>,
<150,5,2,6>,
<150,5,2,7>,
<150,5,2,8>,
<150,6,2,2>,
<150,6,2,3>,
<150,6,2,5>,
<150,6,2,6>,
<150,6,2,7>,
<150,6,2,8>,
<151,7,5,1>,
<151,7,5,3>,
<151,7,5,4>,
<151,7,5,7>,
<152,8,9,2>,
<152,8,9,3>,
<152,8,9,5>,
<152,8,9,7>,
<152,8,9,8>,
<152,9,9,2>,
<152,9,9,3>,
<152,9,9,5>,
<152,9,9,7>,
<152,9,9,8>,
<153,10,4,1>,
<153,10,4,2>,
<153,10,4,3>,
<153,10,4,4>,
<153,10,4,6>,
<153,11,4,1>,
<153,11,4,2>,
<153,11,4,3>,
<153,11,4,4>,
<153,11,4,6>,
<154,12,2,1>,
<154,12,2,3>,
<154,12,2,4>,
<154,12,2,6>,
<154,12,2,8>,
<154,13,2,1>,
<154,13,2,3>,
<154,13,2,4>,
<154,13,2,6>,
<154,13,2,8>,
<155,1,2,1>,
<155,1,2,5>,
<155,1,2,8>,
<155,2,2,1>,
<155,2,2,5>,
<155,2,2,8>,
<156,3,2,2>,
<156,3,2,3>,
<156,3,2,7>,
<156,4,2,2>,
<156,4,2,3>,
<156,4,2,7>,
<157,5,6,2>,
<157,5,6,3>,
<157,5,6,5>,
<157,5,6,6>,
<157,5,6,7>,
<157,5,6,8>,
<157,6,6,2>,
<157,6,6,3>,
<157,6,6,5>,
<157,6,6,6>,
<157,6,6,7>,
<157,6,6,8>,
<158,7,4,1>,
<158,7,4,3>,
<158,7,4,4>,
<158,7,4,7>,
<159,8,5,2>,
<159,8,5,3>,
<159,8,5,5>,
<159,8,5,7>,
<159,8,5,8>,
<159,9,5,2>,
<159,9,5,3>,
<159,9,5,5>,
<159,9,5,7>,
<159,9,5,8>,
<160,10,5,1>,
<160,10,5,2>,
<160,10,5,3>,
<160,10,5,4>,
<160,10,5,6>,
<160,11,5,1>,
<160,11,5,2>,
<160,11,5,3>,
<160,11,5,4>,
<160,11,5,6>,
<162,1,2,1>,
<162,1,2,5>,
<162,1,2,8>,
<162,2,2,1>,
<162,2,2,5>,
<162,2,2,8>,
<165,7,8,1>,
<165,7,8,3>,
<165,7,8,4>,
<165,7,8,7>,
<166,8,6,2>,
<166,8,6,3>,
<166,8,6,5>,
<166,8,6,7>,
<166,8,6,8>,
<166,9,6,2>,
<166,9,6,3>,
<166,9,6,5>,
<166,9,6,7>,
<166,9,6,8>,
<168,12,6,1>,
<168,12,6,3>,
<168,12,6,4>,
<168,12,6,6>,
<168,12,6,8>,
<168,13,6,1>,
<168,13,6,3>,
<168,13,6,4>,
<168,13,6,6>,
<168,13,6,8>,
<169,1,9,1>,
<169,1,9,5>,
<169,1,9,8>,
<169,2,9,1>,
<169,2,9,5>,
<169,2,9,8>,
<170,3,5,2>,
<170,3,5,3>,
<170,3,5,7>,
<170,4,5,2>,
<170,4,5,3>,
<170,4,5,7>,
<171,5,3,2>,
<171,5,3,3>,
<171,5,3,5>,
<171,5,3,6>,
<171,5,3,7>,
<171,5,3,8>,
<171,6,3,2>,
<171,6,3,3>,
<171,6,3,5>,
<171,6,3,6>,
<171,6,3,7>,
<171,6,3,8>,
<172,7,8,1>,
<172,7,8,3>,
<172,7,8,4>,
<172,7,8,7>,
<173,8,3,2>,
<173,8,3,3>,
<173,8,3,5>,
<173,8,3,7>,
<173,8,3,8>,
<173,9,3,2>,
<173,9,3,3>,
<173,9,3,5>,
<173,9,3,7>,
<173,9,3,8>,
<174,10,8,1>,
<174,10,8,2>,
<174,10,8,3>,
<174,10,8,4>,
<174,10,8,6>,
<174,11,8,1>,
<174,11,8,2>,
<174,11,8,3>,
<174,11,8,4>,
<174,11,8,6>,
<175,12,1,1>,
<175,12,1,3>,
<175,12,1,4>,
<175,12,1,6>,
<175,12,1,8>,
<175,13,1,1>,
<175,13,1,3>,
<175,13,1,4>,
<175,13,1,6>,
<175,13,1,8>,
<176,1,10,1>,
<176,1,10,5>,
<176,1,10,8>,
<176,2,10,1>,
<176,2,10,5>,
<176,2,10,8>,
<177,3,6,2>,
<177,3,6,3>,
<177,3,6,7>,
<177,4,6,2>,
<177,4,6,3>,
<177,4,6,7>,
<178,5,6,2>,
<178,5,6,3>,
<178,5,6,5>,
<178,5,6,6>,
<178,5,6,7>,
<178,5,6,8>,
<178,6,6,2>,
<178,6,6,3>,
<178,6,6,5>,
<178,6,6,6>,
<178,6,6,7>,
<178,6,6,8>,
<182,12,6,1>,
<182,12,6,3>,
<182,12,6,4>,
<182,12,6,6>,
<182,12,6,8>,
<182,13,6,1>,
<182,13,6,3>,
<182,13,6,4>,
<182,13,6,6>,
<182,13,6,8>,
<185,5,8,2>,
<185,5,8,3>,
<185,5,8,5>,
<185,5,8,6>,
<185,5,8,7>,
<185,5,8,8>,
<185,6,8,2>,
<185,6,8,3>,
<185,6,8,5>,
<185,6,8,6>,
<185,6,8,7>,
<185,6,8,8>,
<186,7,7,1>,
<186,7,7,3>,
<186,7,7,4>,
<186,7,7,7>,
<189,12,1,1>,
<189,12,1,3>,
<189,12,1,4>,
<189,12,1,6>,
<189,12,1,8>,
<189,13,1,1>,
<189,13,1,3>,
<189,13,1,4>,
<189,13,1,6>,
<189,13,1,8>,
<190,1,5,1>,
<190,1,5,5>,
<190,1,5,8>,
<190,2,5,1>,
<190,2,5,5>,
<190,2,5,8>,
<191,3,1,2>,
<191,3,1,3>,
<191,3,1,7>,
<191,4,1,2>,
<191,4,1,3>,
<191,4,1,7>,
<192,5,8,2>,
<192,5,8,3>,
<192,5,8,5>,
<192,5,8,6>,
<192,5,8,7>,
<192,5,8,8>,
<192,6,8,2>,
<192,6,8,3>,
<192,6,8,5>,
<192,6,8,6>,
<192,6,8,7>,
<192,6,8,8>,
<193,7,1,1>,
<193,7,1,3>,
<193,7,1,4>,
<193,7,1,7>,
<194,8,3,2>,
<194,8,3,3>,
<194,8,3,5>,
<194,8,3,7>,
<194,8,3,8>,
<194,9,3,2>,
<194,9,3,3>,
<194,9,3,5>,
<194,9,3,7>,
<194,9,3,8>,
<195,10,5,1>,
<195,10,5,2>,
<195,10,5,3>,
<195,10,5,4>,
<195,10,5,6>,
<195,11,5,1>,
<195,11,5,2>,
<195,11,5,3>,
<195,11,5,4>,
<195,11,5,6>,
<196,12,2,1>,
<196,12,2,3>,
<196,12,2,4>,
<196,12,2,6>,
<196,12,2,8>,
<196,13,2,1>,
<196,13,2,3>,
<196,13,2,4>,
<196,13,2,6>,
<196,13,2,8>,
<197,1,10,1>,
<197,1,10,5>,
<197,1,10,8>,
<197,2,10,1>,
<197,2,10,5>,
<197,2,10,8>,
<200,7,3,1>,
<200,7,3,3>,
<200,7,3,4>,
<200,7,3,7>,
<205,3,4,2>,
<205,3,4,3>,
<205,3,4,7>,
<205,4,4,2>,
<205,4,4,3>,
<205,4,4,7>,
<207,7,10,1>,
<207,7,10,3>,
<207,7,10,4>,
<207,7,10,7>,
<209,10,2,1>,
<209,10,2,2>,
<209,10,2,3>,
<209,10,2,4>,
<209,10,2,6>,
<209,11,2,1>,
<209,11,2,2>,
<209,11,2,3>,
<209,11,2,4>,
<209,11,2,6>,
<211,1,9,1>,
<211,1,9,5>,
<211,1,9,8>,
<211,2,9,1>,
<211,2,9,5>,
<211,2,9,8>,
<212,3,3,2>,
<212,3,3,3>,
<212,3,3,7>,
<212,4,3,2>,
<212,4,3,3>,
<212,4,3,7>,
<213,5,7,2>,
<213,5,7,3>,
<213,5,7,5>,
<213,5,7,6>,
<213,5,7,7>,
<213,5,7,8>,
<213,6,7,2>,
<213,6,7,3>,
<213,6,7,5>,
<213,6,7,6>,
<213,6,7,7>,
<213,6,7,8>,
<214,7,10,1>,
<214,7,10,3>,
<214,7,10,4>,
<214,7,10,7>,
<215,8,4,2>,
<215,8,4,3>,
<215,8,4,5>,
<215,8,4,7>,
<215,8,4,8>,
<215,9,4,2>,
<215,9,4,3>,
<215,9,4,5>,
<215,9,4,7>,
<215,9,4,8>,
<216,10,10,1>,
<216,10,10,2>,
<216,10,10,3>,
<216,10,10,4>,
<216,10,10,6>,
<216,11,10,1>,
<216,11,10,2>,
<216,11,10,3>,
<216,11,10,4>,
<216,11,10,6>,
<217,12,6,1>,
<217,12,6,3>,
<217,12,6,4>,
<217,12,6,6>,
<217,12,6,8>,
<217,13,6,1>,
<217,13,6,3>,
<217,13,6,4>,
<217,13,6,6>,
<217,13,6,8>,
<218,1,9,1>,
<218,1,9,5>,
<218,1,9,8>,
<218,2,9,1>,
<218,2,9,5>,
<218,2,9,8>,
<221,7,6,1>,
<221,7,6,3>,
<221,7,6,4>,
<221,7,6,7>,
<222,8,9,2>,
<222,8,9,3>,
<222,8,9,5>,
<222,8,9,7>,
<222,8,9,8>,
<222,9,9,2>,
<222,9,9,3>,
<222,9,9,5>,
<222,9,9,7>,
<222,9,9,8>,
<223,10,1,1>,
<223,10,1,2>,
<223,10,1,3>,
<223,10,1,4>,
<223,10,1,6>,
<223,11,1,1>,
<223,11,1,2>,
<223,11,1,3>,
<223,11,1,4>,
<223,11,1,6>,
<225,1,7,1>,
<225,1,7,5>,
<225,1,7,8>,
<225,2,7,1>,
<225,2,7,5>,
<225,2,7,8>,
<227,5,2,2>,
<227,5,2,3>,
<227,5,2,5>,
<227,5,2,6>,
<227,5,2,7>,
<227,5,2,8>,
<227,6,2,2>,
<227,6,2,3>,
<227,6,2,5>,
<227,6,2,6>,
<227,6,2,7>,
<227,6,2,8>,
<228,7,8,1>,
<228,7,8,3>,
<228,7,8,4>,
<228,7,8,7>,
<229,8,10,2>,
<229,8,10,3>,
<229,8,10,5>,
<229,8,10,7>,
<229,8,10,8>,
<229,9,10,2>,
<229,9,10,3>,
<229,9,10,5>,
<229,9,10,7>,
<229,9,10,8>,
<232,1,4,1>,
<232,1,4,5>,
<232,1,4,8>,
<232,2,4,1>,
<232,2,4,5>,
<232,2,4,8>,
<233,3,4,2>,
<233,3,4,3>,
<233,3,4,7>,
<233,4,4,2>,
<233,4,4,3>,
<233,4,4,7>,
<234,5,2,2>,
<234,5,2,3>,
<234,5,2,5>,
<234,5,2,6>,
<234,5,2,7>,
<234,5,2,8>,
<234,6,2,2>,
<234,6,2,3>,
<234,6,2,5>,
<234,6,2,6>,
<234,6,2,7>,
<234,6,2,8>,
<235,7,3,1>,
<235,7,3,3>,
<235,7,3,4>,
<235,7,3,7>,
<236,8,7,2>,
<236,8,7,3>,
<236,8,7,5>,
<236,8,7,7>,
<236,8,7,8>,
<236,9,7,2>,
<236,9,7,3>,
<236,9,7,5>,
<236,9,7,7>,
<236,9,7,8>,
<237,10,8,1>,
<237,10,8,2>,
<237,10,8,3>,
<237,10,8,4>,
<237,10,8,6>,
<237,11,8,1>,
<237,11,8,2>,
<237,11,8,3>,
<237,11,8,4>,
<237,11,8,6>,
<238,12,9,1>,
<238,12,9,3>,
<238,12,9,4>,
<238,12,9,6>,
<238,12,9,8>,
<238,13,9,1>,
<238,13,9,3>,
<238,13,9,4>,
<238,13,9,6>,
<238,13,9,8>,
<239,1,8,1>,
<239,1,8,5>,
<239,1,8,8>,
<239,2,8,1>,
<239,2,8,5>,
<239,2,8,8>,
<241,5,2,2>,
<241,5,2,3>,
<241,5,2,5>,
<241,5,2,6>,
<241,5,2,7>,
<241,5,2,8>,
<241,6,2,2>,
<241,6,2,3>,
<241,6,2,5>,
<241,6,2,6>,
<241,6,2,7>,
<241,6,2,8>,
<242,7,2,1>,
<242,7,2,3>,
<242,7,2,4>,
<242,7,2,7>,
<243,8,6,2>,
<243,8,6,3>,
<243,8,6,5>,
<243,8,6,7>,
<243,8,6,8>,
<243,9,6,2>,
<243,9,6,3>,
<243,9,6,5>,
<243,9,6,7>,
<243,9,6,8>,
<244,10,6,1>,
<244,10,6,2>,
<244,10,6,3>,
<244,10,6,4>,
<244,10,6,6>,
<244,11,6,1>,
<244,11,6,2>,
<244,11,6,3>,
<244,11,6,4>,
<244,11,6,6>,
<245,12,3,1>,
<245,12,3,3>,
<245,12,3,4>,
<245,12,3,6>,
<245,12,3,8>,
<245,13,3,1>,
<245,13,3,3>,
<245,13,3,4>,
<245,13,3,6>,
<245,13,3,8>,
<246,1,5,1>,
<246,1,5,5>,
<246,1,5,8>,
<246,2,5,1>,
<246,2,5,5>,
<246,2,5,8>,
<248,5,6,2>,
<248,5,6,3>,
<248,5,6,5>,
<248,5,6,6>,
<248,5,6,7>,
<248,5,6,8>,
<248,6,6,2>,
<248,6,6,3>,
<248,6,6,5>,
<248,6,6,6>,
<248,6,6,7>,
<248,6,6,8>,
<249,7,9,1>,
<249,7,9,3>,
<249,7,9,4>,
<249,7,9,7>,
<252,12,8,1>,
<252,12,8,3>,
<252,12,8,4>,
<252,12,8,6>,
<252,12,8,8>,
<252,13,8,1>,
<252,13,8,3>,
<252,13,8,4>,
<252,13,8,6>,
<252,13,8,8>,
<253,1,7,1>,
<253,1,7,5>,
<253,1,7,8>,
<253,2,7,1>,
<253,2,7,5>,
<253,2,7,8>,
<254,3,9,2>,
<254,3,9,3>,
<254,3,9,7>,
<254,4,9,2>,
<254,4,9,3>,
<254,4,9,7>,
<255,5,1,2>,
<255,5,1,3>,
<255,5,1,5>,
<255,5,1,6>,
<255,5,1,7>,
<255,5,1,8>,
<255,6,1,2>,
<255,6,1,3>,
<255,6,1,5>,
<255,6,1,6>,
<255,6,1,7>,
<255,6,1,8>,
<256,7,1,1>,
<256,7,1,3>,
<256,7,1,4>,
<256,7,1,7>,
<257,8,8,2>,
<257,8,8,3>,
<257,8,8,5>,
<257,8,8,7>,
<257,8,8,8>,
<257,9,8,2>,
<257,9,8,3>,
<257,9,8,5>,
<257,9,8,7>,
<257,9,8,8>,
<258,10,6,1>,
<258,10,6,2>,
<258,10,6,3>,
<258,10,6,4>,
<258,10,6,6>,
<258,11,6,1>,
<258,11,6,2>,
<258,11,6,3>,
<258,11,6,4>,
<258,11,6,6>,
<259,12,3,1>,
<259,12,3,3>,
<259,12,3,4>,
<259,12,3,6>,
<259,12,3,8>,
<259,13,3,1>,
<259,13,3,3>,
<259,13,3,4>,
<259,13,3,6>,
<259,13,3,8>,
<260,1,2,1>,
<260,1,2,5>,
<260,1,2,8>,
<260,2,2,1>,
<260,2,2,5>,
<260,2,2,8>,
<261,3,9,2>,
<261,3,9,3>,
<261,3,9,7>,
<261,4,9,2>,
<261,4,9,3>,
<261,4,9,7>,
<264,8,5,2>,
<264,8,5,3>,
<264,8,5,5>,
<264,8,5,7>,
<264,8,5,8>,
<264,9,5,2>,
<264,9,5,3>,
<264,9,5,5>,
<264,9,5,7>,
<264,9,5,8>,
<266,12,4,1>,
<266,12,4,3>,
<266,12,4,4>,
<266,12,4,6>,
<266,12,4,8>,
<266,13,4,1>,
<266,13,4,3>,
<266,13,4,4>,
<266,13,4,6>,
<266,13,4,8>,
<267,1,4,1>,
<267,1,4,5>,
<267,1,4,8>,
<267,2,4,1>,
<267,2,4,5>,
<267,2,4,8>,
<268,3,6,2>,
<268,3,6,3>,
<268,3,6,7>,
<268,4,6,2>,
<268,4,6,3>,
<268,4,6,7>,
<270,7,10,1>,
<270,7,10,3>,
<270,7,10,4>,
<270,7,10,7>,
<271,8,6,2>,
<271,8,6,3>,
<271,8,6,5>,
<271,8,6,7>,
<271,8,6,8>,
<271,9,6,2>,
<271,9,6,3>,
<271,9,6,5>,
<271,9,6,7>,
<271,9,6,8>,
<274,1,6,1>,
<274,1,6,5>,
<274,1,6,8>,
<274,2,6,1>,
<274,2,6,5>,
<274,2,6,8>,
<275,3,2,2>,
<275,3,2,3>,
<275,3,2,7>,
<275,4,2,2>,
<275,4,2,3>,
<275,4,2,7>,
<276,5,9,2>,
<276,5,9,3>,
<276,5,9,5>,
<276,5,9,6>,
<276,5,9,7>,
<276,5,9,8>,
<276,6,9,2>,
<276,6,9,3>,
<276,6,9,5>,
<276,6,9,6>,
<276,6,9,7>,
<276,6,9,8>,
<277,7,7,1>,
<277,7,7,3>,
<277,7,7,4>,
<277,7,7,7>,
<278,8,4,2>,
<278,8,4,3>,
<278,8,4,5>,
<278,8,4,7>,
<278,8,4,8>,
<278,9,4,2>,
<278,9,4,3>,
<278,9,4,5>,
<278,9,4,7>,
<278,9,4,8>,
<279,10,2,1>,
<279,10,2,2>,
<279,10,2,3>,
<279,10,2,4>,
<279,10,2,6>,
<279,11,2,1>,
<279,11,2,2>,
<279,11,2,3>,
<279,11,2,4>,
<279,11,2,6>,
<280,12,8,1>,
<280,12,8,3>,
<280,12,8,4>,
<280,12,8,6>,
<280,12,8,8>,
<280,13,8,1>,
<280,13,8,3>,
<280,13,8,4>,
<280,13,8,6>,
<280,13,8,8>,
<281,1,5,1>,
<281,1,5,5>,
<281,1,5,8>,
<281,2,5,1>,
<281,2,5,5>,
<281,2,5,8>,
<282,3,3,2>,
<282,3,3,3>,
<282,3,3,7>,
<282,4,3,2>,
<282,4,3,3>,
<282,4,3,7>,
<284,7,10,1>,
<284,7,10,3>,
<284,7,10,4>,
<284,7,10,7>,
<286,10,3,1>,
<286,10,3,2>,
<286,10,3,3>,
<286,10,3,4>,
<286,10,3,6>,
<286,11,3,1>,
<286,11,3,2>,
<286,11,3,3>,
<286,11,3,4>,
<286,11,3,6>,
<290,5,6,2>,
<290,5,6,3>,
<290,5,6,5>,
<290,5,6,6>,
<290,5,6,7>,
<290,5,6,8>,
<290,6,6,2>,
<290,6,6,3>,
<290,6,6,5>,
<290,6,6,6>,
<290,6,6,7>,
<290,6,6,8>,
<293,10,7,1>,
<293,10,7,2>,
<293,10,7,3>,
<293,10,7,4>,
<293,10,7,6>,
<293,11,7,1>,
<293,11,7,2>,
<293,11,7,3>,
<293,11,7,4>,
<293,11,7,6>,
<295,1,9,1>,
<295,1,9,5>,
<295,1,9,8>,
<295,2,9,1>,
<295,2,9,5>,
<295,2,9,8>,
<296,3,4,2>,
<296,3,4,3>,
<296,3,4,7>,
<296,4,4,2>,
<296,4,4,3>,
<296,4,4,7>,
<297,5,7,2>,
<297,5,7,3>,
<297,5,7,5>,
<297,5,7,6>,
<297,5,7,7>,
<297,5,7,8>,
<297,6,7,2>,
<297,6,7,3>,
<297,6,7,5>,
<297,6,7,6>,
<297,6,7,7>,
<297,6,7,8>,
<298,7,4,1>,
<298,7,4,3>,
<298,7,4,4>,
<298,7,4,7>,
<299,8,6,2>,
<299,8,6,3>,
<299,8,6,5>,
<299,8,6,7>,
<299,8,6,8>,
<299,9,6,2>,
<299,9,6,3>,
<299,9,6,5>,
<299,9,6,7>,
<299,9,6,8>,
<300,10,6,1>,
<300,10,6,2>,
<300,10,6,3>,
<300,10,6,4>,
<300,10,6,6>,
<300,11,6,1>,
<300,11,6,2>,
<300,11,6,3>,
<300,11,6,4>,
<300,11,6,6>,
<301,12,9,1>,
<301,12,9,3>,
<301,12,9,4>,
<301,12,9,6>,
<301,12,9,8>,
<301,13,9,1>,
<301,13,9,3>,
<301,13,9,4>,
<301,13,9,6>,
<301,13,9,8>,
<302,1,4,1>,
<302,1,4,5>,
<302,1,4,8>,
<302,2,4,1>,
<302,2,4,5>,
<302,2,4,8>,
<303,3,2,2>,
<303,3,2,3>,
<303,3,2,7>,
<303,4,2,2>,
<303,4,2,3>,
<303,4,2,7>,
<305,7,9,1>,
<305,7,9,3>,
<305,7,9,4>,
<305,7,9,7>,
<306,8,8,2>,
<306,8,8,3>,
<306,8,8,5>,
<306,8,8,7>,
<306,8,8,8>,
<306,9,8,2>,
<306,9,8,3>,
<306,9,8,5>,
<306,9,8,7>,
<306,9,8,8>,
<307,10,8,1>,
<307,10,8,2>,
<307,10,8,3>,
<307,10,8,4>,
<307,10,8,6>,
<307,11,8,1>,
<307,11,8,2>,
<307,11,8,3>,
<307,11,8,4>,
<307,11,8,6>,
<308,12,7,1>,
<308,12,7,3>,
<308,12,7,4>,
<308,12,7,6>,
<308,12,7,8>,
<308,13,7,1>,
<308,13,7,3>,
<308,13,7,4>,
<308,13,7,6>,
<308,13,7,8>,
<310,3,5,2>,
<310,3,5,3>,
<310,3,5,7>,
<310,4,5,2>,
<310,4,5,3>,
<310,4,5,7>,
<312,7,5,1>,
<312,7,5,3>,
<312,7,5,4>,
<312,7,5,7>,
<314,10,10,1>,
<314,10,10,2>,
<314,10,10,3>,
<314,10,10,4>,
<314,10,10,6>,
<314,11,10,1>,
<314,11,10,2>,
<314,11,10,3>,
<314,11,10,4>,
<314,11,10,6>
 };
